427,152
470,115
681,-14
561,36
681,46
663,463
624,424
681,646
829,862
1051,526
829,258
899,248
1194,240
888,438
663,349
415,213
567,369
417,770
607,634
695,494
533,429
356,355
148,322
921,528
1066,467
921,528
839,624
624,424
628,379
663,349
663,463
196,563
148,490
196,563
598,150
1161,406
681,-14
746,-8
702,427
695,494
786,551
766,433
681,646
364,842
